100
150
100
99
99
99
97
97
96
96
95
94
94
93
93
92
91
91
90
89
88
88
87
87
86
85
84
83
83
83
82
82
78
75
75
73
73
72
72
70
69
69
67
67
65
65
63
61
61
60
59
58
58
58
58
57
57
57
55
54
54
54
52
52
52
51
48
47
47
47
46
45
45
45
44
42
41
40
37
35
34
31
30
29
27
26
26
26
25
25
25
24
24
24
24
23
23
23
23
23
22
20
